SAT/4468285_17.param
$ LBS instance with n = 17, seed = 4468285
letting cards be [26,11,10,42,12,31,32,25,29,20,49,33,34,5,44,18,16]
